p cnf 434 1374
a 2 3 4 5 6 7 8 12 17 19 21 22 23 26 28 30 31 33 35 37 38 40 42 44 46 48 50 52 55 56 63 65 69 73 75 77 81 88 93 98 101 102 0
e 1 9 10 11 13 14 15 16 18 20 24 25 27 29 32 34 36 39 41 43 45 47 49 51 53 54 57 58 59 60 61 62 64 66 67 68 70 71 72 74 76 78 79 80 82 83 84 85 86 87 89 90 91 92 94 95 96 97 99 100 103 104 105 106 107 108 109 110 111 112 113 114 115 116 117 118 119 120 121 122 123 124 125 126 127 128 129 130 131 132 133 134 135 136 137 138 139 140 141 142 143 144 145 146 147 148 149 150 151 152 153 154 155 156 157 158 159 160 161 162 163 164 165 166 167 168 169 170 171 172 173 174 175 176 177 178 179 180 181 182 183 184 185 186 187 188 189 190 191 192 193 194 195 196 197 198 199 200 201 202 203 204 205 206 207 208 209 210 211 212 213 214 215 216 217 218 219 220 221 222 223 224 225 226 227 228 229 230 231 232 233 234 235 236 237 238 239 240 241 242 243 244 245 246 247 248 249 250 251 252 253 254 255 256 257 258 259 260 261 262 263 264 265 266 267 268 269 270 271 272 273 274 275 276 277 278 279 280 281 282 283 284 285 286 287 288 289 290 291 292 293 294 295 296 297 298 299 300 301 302 303 304 305 306 307 308 309 310 311 312 313 314 315 316 317 318 319 320 321 322 323 324 325 326 327 328 329 330 331 332 333 334 335 336 337 338 339 340 341 342 343 344 345 346 347 348 349 350 351 352 353 354 355 356 357 358 359 360 361 362 363 364 365 366 367 368 369 370 371 372 373 374 375 376 377 378 379 380 381 382 383 384 385 386 387 388 389 390 391 392 393 394 395 396 397 398 399 400 401 402 403 404 405 406 407 408 409 410 411 412 413 414 415 416 417 418 419 420 421 422 423 424 425 426 427 428 429 430 431 432 433 434 0
1 0
7 -9 0
8 -9 0
-7 -8 9 0
7 -10 0
-8 -10 0
-7 8 10 0
7 11 0
-9 11 0
-10 11 0
-7 9 10 -11 0
-12 13 0
12 13 0
6 -14 0
11 -14 0
13 -14 0
-6 -11 -13 14 0
-6 -15 0
11 -15 0
6 -11 15 0
-14 16 0
-15 16 0
14 15 -16 0
-17 18 0
17 18 0
-19 20 0
19 20 0
22 -24 0
-23 -24 0
-22 23 24 0
22 25 0
-24 25 0
-22 24 -25 0
-26 27 0
26 27 0
27 -29 0
28 -29 0
-27 -28 29 0
-31 32 0
31 32 0
32 -34 0
-33 -34 0
-32 33 34 0
32 -36 0
33 -36 0
35 -36 0
-32 -33 -35 36 0
32 -39 0
33 -39 0
-35 -39 0
37 -39 0
38 -39 0
-32 -33 35 -37 -38 39 0
32 -41 0
33 -41 0
-35 -41 0
37 -41 0
-38 -41 0
-40 -41 0
-32 -33 35 -37 38 40 41 0
32 -43 0
33 -43 0
-35 -43 0
-37 -43 0
-42 -43 0
-32 -33 35 37 42 43 0
32 -45 0
33 -45 0
-35 -45 0
-37 -45 0
42 -45 0
44 -45 0
-32 -33 35 37 -42 -44 45 0
32 -47 0
33 -47 0
-35 -47 0
37 -47 0
-38 -47 0
40 -47 0
46 -47 0
-32 -33 35 -37 38 -40 -46 47 0
32 -49 0
33 -49 0
-35 -49 0
37 -49 0
-38 -49 0
40 -49 0
-46 -49 0
48 -49 0
-32 -33 35 -37 38 -40 46 -48 49 0
-50 51 0
50 51 0
32 -53 0
33 -53 0
-35 -53 0
-37 -53 0
42 -53 0
-44 -53 0
51 -53 0
52 -53 0
-32 -33 35 37 -42 44 -51 -52 53 0
32 -54 0
33 -54 0
-35 -54 0
-37 -54 0
42 -54 0
-44 -54 0
51 -54 0
-52 -54 0
-32 -33 35 37 -42 44 -51 52 54 0
55 -57 0
56 -57 0
-55 -56 57 0
55 -58 0
-56 -58 0
-55 56 58 0
55 59 0
-57 59 0
-58 59 0
-55 57 58 -59 0
32 -60 0
33 -60 0
-35 -60 0
37 -60 0
-38 -60 0
40 -60 0
-46 -60 0
-48 -60 0
59 -60 0
-32 -33 35 -37 38 -40 46 48 -59 60 0
-34 61 0
-36 61 0
-39 61 0
-41 61 0
-43 61 0
-45 61 0
-47 61 0
-49 61 0
-53 61 0
-54 61 0
-60 61 0
34 36 39 41 43 45 47 49 53 54 60 -61 0
27 -62 0
-28 -62 0
-30 -62 0
61 -62 0
-27 28 30 -61 62 0
27 -64 0
-28 -64 0
30 -64 0
-63 -64 0
-27 28 -30 63 64 0
27 -66 0
-28 -66 0
30 -66 0
63 -66 0
-65 -66 0
-27 28 -30 -63 65 66 0
27 -67 0
-28 -67 0
30 -67 0
63 -67 0
65 -67 0
-27 28 -30 -63 -65 67 0
-62 68 0
-64 68 0
-66 68 0
-67 68 0
62 64 66 67 -68 0
68 -70 0
69 -70 0
-68 -69 70 0
68 -71 0
-69 -71 0
-68 69 71 0
-29 72 0
-70 72 0
-71 72 0
29 70 71 -72 0
-73 74 0
73 74 0
21 -76 0
25 -76 0
72 -76 0
74 -76 0
75 -76 0
-21 -25 -72 -74 -75 76 0
-77 78 0
77 78 0
21 -79 0
25 -79 0
72 -79 0
74 -79 0
-75 -79 0
78 -79 0
-21 -25 -72 -74 75 -78 79 0
-76 80 0
-79 80 0
76 79 -80 0
80 -82 0
81 -82 0
-80 -81 82 0
80 -83 0
-81 -83 0
-80 81 83 0
21 84 0
-82 84 0
-83 84 0
-21 82 83 -84 0
5 -85 0
16 -85 0
18 -85 0
20 -85 0
84 -85 0
-5 -16 -18 -20 -84 85 0
-5 -86 0
16 -86 0
18 -86 0
20 -86 0
5 -16 -18 -20 86 0
-85 87 0
-86 87 0
85 86 -87 0
88 89 0
-88 89 0
4 -90 0
87 -90 0
89 -90 0
-4 -87 -89 90 0
-4 -91 0
87 -91 0
4 -87 91 0
-90 92 0
-91 92 0
90 91 -92 0
93 94 0
-93 94 0
3 -95 0
92 -95 0
94 -95 0
-3 -92 -94 95 0
-3 -96 0
92 -96 0
3 -92 96 0
-95 97 0
-96 97 0
95 96 -97 0
98 99 0
-98 99 0
2 -100 0
97 -100 0
99 -100 0
-2 -97 -99 100 0
102 103 0
-102 103 0
101 -104 0
97 -104 0
103 -104 0
-101 -97 -103 104 0
-101 -105 0
97 -105 0
101 -97 105 0
-104 106 0
-105 106 0
104 105 -106 0
-2 -107 0
106 -107 0
2 -106 107 0
-100 108 0
-107 108 0
100 107 -108 0
-12 109 0
12 109 0
6 -110 0
109 -110 0
-6 -109 110 0
-110 111 0
6 111 0
110 -6 -111 0
111 -112 0
-21 -112 0
-111 21 112 0
111 -113 0
27 -113 0
28 -113 0
-111 -27 -28 113 0
111 -114 0
27 -114 0
-28 -114 0
30 -114 0
63 -114 0
-65 -114 0
-111 -27 28 -30 -63 65 114 0
111 -115 0
27 -115 0
-28 -115 0
30 -115 0
63 -115 0
65 -115 0
-111 -27 28 -30 -63 -65 115 0
111 -116 0
27 -116 0
-28 -116 0
30 -116 0
-63 -116 0
-111 -27 28 -30 63 116 0
111 -117 0
31 -117 0
-111 -31 117 0
111 -118 0
-31 -118 0
-111 31 118 0
-117 119 0
-118 119 0
117 118 -119 0
-34 120 0
-36 120 0
-39 120 0
-41 120 0
-43 120 0
-45 120 0
-47 120 0
-49 120 0
34 36 39 41 43 45 47 49 -120 0
119 -121 0
120 -121 0
-119 -120 121 0
119 -122 0
32 -122 0
33 -122 0
-35 -122 0
37 -122 0
-38 -122 0
40 -122 0
-46 -122 0
-48 -122 0
59 -122 0
-119 -32 -33 35 -37 38 -40 46 48 -59 122 0
-53 123 0
-54 123 0
53 54 -123 0
119 -124 0
123 -124 0
-119 -123 124 0
-121 125 0
-122 125 0
-124 125 0
121 122 124 -125 0
125 -126 0
27 -126 0
-28 -126 0
-30 -126 0
61 -126 0
-125 -27 28 30 -61 126 0
-114 127 0
-115 127 0
-116 127 0
-126 127 0
114 115 116 126 -127 0
127 -128 0
68 -128 0
69 -128 0
-127 -68 -69 128 0
127 -129 0
68 -129 0
-69 -129 0
-127 -68 69 129 0
-113 130 0
-128 130 0
-129 130 0
113 128 129 -130 0
130 -131 0
21 -131 0
25 -131 0
72 -131 0
74 -131 0
75 -131 0
-130 -21 -25 -72 -74 -75 131 0
130 -132 0
21 -132 0
25 -132 0
72 -132 0
74 -132 0
-75 -132 0
78 -132 0
-130 -21 -25 -72 -74 75 -78 132 0
-131 133 0
-132 133 0
131 132 -133 0
-82 134 0
-83 134 0
82 83 -134 0
133 -135 0
134 -135 0
-133 -134 135 0
-112 136 0
-135 136 0
112 135 -136 0
5 -137 0
136 -137 0
-5 -136 137 0
-5 -138 0
111 -138 0
5 -111 138 0
-137 139 0
-138 139 0
137 138 -139 0
139 -140 0
-88 -140 0
-139 88 140 0
139 -141 0
88 -141 0
-139 -88 141 0
-140 142 0
-141 142 0
140 141 -142 0
4 -143 0
142 -143 0
-4 -142 143 0
-4 -144 0
139 -144 0
4 -139 144 0
-143 145 0
-144 145 0
143 144 -145 0
145 -146 0
-93 -146 0
-145 93 146 0
145 -147 0
93 -147 0
-145 -93 147 0
-146 148 0
-147 148 0
146 147 -148 0
3 -149 0
148 -149 0
-3 -148 149 0
-3 -150 0
145 -150 0
3 -145 150 0
-149 151 0
-150 151 0
149 150 -151 0
151 -152 0
-98 -152 0
-151 98 152 0
151 -153 0
98 -153 0
-151 -98 153 0
-152 154 0
-153 154 0
152 153 -154 0
2 -155 0
154 -155 0
-2 -154 155 0
151 -156 0
-102 -156 0
-151 102 156 0
151 -157 0
102 -157 0
-151 -102 157 0
-156 158 0
-157 158 0
156 157 -158 0
101 -159 0
158 -159 0
-101 -158 159 0
-101 -160 0
151 -160 0
101 -151 160 0
-159 161 0
-160 161 0
159 160 -161 0
-2 -162 0
161 -162 0
2 -161 162 0
-155 163 0
-162 163 0
155 162 -163 0
-12 164 0
12 164 0
6 -165 0
164 -165 0
-6 -164 165 0
-165 166 0
6 166 0
165 -6 -166 0
166 -167 0
-21 -167 0
-166 21 167 0
166 -168 0
27 -168 0
28 -168 0
-166 -27 -28 168 0
166 -169 0
27 -169 0
-28 -169 0
30 -169 0
63 -169 0
-65 -169 0
-166 -27 28 -30 -63 65 169 0
166 -170 0
27 -170 0
-28 -170 0
30 -170 0
63 -170 0
65 -170 0
-166 -27 28 -30 -63 -65 170 0
166 -171 0
27 -171 0
-28 -171 0
30 -171 0
-63 -171 0
-166 -27 28 -30 63 171 0
166 -172 0
31 -172 0
-166 -31 172 0
166 -173 0
-31 -173 0
-166 31 173 0
-172 174 0
-173 174 0
172 173 -174 0
-34 175 0
-36 175 0
-39 175 0
-41 175 0
-43 175 0
-45 175 0
-47 175 0
-49 175 0
34 36 39 41 43 45 47 49 -175 0
174 -176 0
175 -176 0
-174 -175 176 0
174 -177 0
32 -177 0
33 -177 0
-35 -177 0
37 -177 0
-38 -177 0
40 -177 0
-46 -177 0
-48 -177 0
59 -177 0
-174 -32 -33 35 -37 38 -40 46 48 -59 177 0
174 -178 0
123 -178 0
-174 -123 178 0
-176 179 0
-177 179 0
-178 179 0
176 177 178 -179 0
179 -180 0
27 -180 0
-28 -180 0
-30 -180 0
61 -180 0
-179 -27 28 30 -61 180 0
-169 181 0
-170 181 0
-171 181 0
-180 181 0
169 170 171 180 -181 0
181 -182 0
68 -182 0
69 -182 0
-181 -68 -69 182 0
181 -183 0
68 -183 0
-69 -183 0
-181 -68 69 183 0
-168 184 0
-182 184 0
-183 184 0
168 182 183 -184 0
184 -185 0
21 -185 0
25 -185 0
72 -185 0
74 -185 0
75 -185 0
-184 -21 -25 -72 -74 -75 185 0
184 -186 0
21 -186 0
25 -186 0
72 -186 0
74 -186 0
-75 -186 0
78 -186 0
-184 -21 -25 -72 -74 75 -78 186 0
-185 187 0
-186 187 0
185 186 -187 0
187 -188 0
134 -188 0
-187 -134 188 0
-167 189 0
-188 189 0
167 188 -189 0
5 -190 0
189 -190 0
-5 -189 190 0
-5 -191 0
166 -191 0
5 -166 191 0
-190 192 0
-191 192 0
190 191 -192 0
192 -193 0
-88 -193 0
-192 88 193 0
192 -194 0
88 -194 0
-192 -88 194 0
-193 195 0
-194 195 0
193 194 -195 0
4 -196 0
195 -196 0
-4 -195 196 0
-4 -197 0
192 -197 0
4 -192 197 0
-196 198 0
-197 198 0
196 197 -198 0
198 -199 0
-93 -199 0
-198 93 199 0
198 -200 0
93 -200 0
-198 -93 200 0
-199 201 0
-200 201 0
199 200 -201 0
3 -202 0
201 -202 0
-3 -201 202 0
-3 -203 0
198 -203 0
3 -198 203 0
-202 204 0
-203 204 0
202 203 -204 0
204 -205 0
-98 -205 0
-204 98 205 0
204 -206 0
98 -206 0
-204 -98 206 0
-205 207 0
-206 207 0
205 206 -207 0
2 -208 0
207 -208 0
-2 -207 208 0
204 -209 0
-102 -209 0
-204 102 209 0
204 -210 0
102 -210 0
-204 -102 210 0
-209 211 0
-210 211 0
209 210 -211 0
101 -212 0
211 -212 0
-101 -211 212 0
-101 -213 0
204 -213 0
101 -204 213 0
-212 214 0
-213 214 0
212 213 -214 0
-2 -215 0
214 -215 0
2 -214 215 0
-208 216 0
-215 216 0
208 215 -216 0
222 -224 0
223 -224 0
-222 -223 224 0
222 -225 0
-223 -225 0
-222 223 225 0
222 226 0
-224 226 0
-225 226 0
-222 224 225 -226 0
-227 228 0
227 228 0
221 -229 0
226 -229 0
228 -229 0
-221 -226 -228 229 0
-221 -230 0
226 -230 0
221 -226 230 0
-229 231 0
-230 231 0
229 230 -231 0
-232 233 0
232 233 0
-234 235 0
234 235 0
237 -239 0
-238 -239 0
-237 238 239 0
237 240 0
-239 240 0
-237 239 -240 0
-241 242 0
241 242 0
242 -244 0
243 -244 0
-242 -243 244 0
-246 247 0
246 247 0
247 -249 0
-248 -249 0
-247 248 249 0
247 -251 0
248 -251 0
250 -251 0
-247 -248 -250 251 0
247 -254 0
248 -254 0
-250 -254 0
252 -254 0
253 -254 0
-247 -248 250 -252 -253 254 0
247 -256 0
248 -256 0
-250 -256 0
252 -256 0
-253 -256 0
-255 -256 0
-247 -248 250 -252 253 255 256 0
247 -258 0
248 -258 0
-250 -258 0
-252 -258 0
-257 -258 0
-247 -248 250 252 257 258 0
247 -260 0
248 -260 0
-250 -260 0
-252 -260 0
257 -260 0
259 -260 0
-247 -248 250 252 -257 -259 260 0
247 -262 0
248 -262 0
-250 -262 0
252 -262 0
-253 -262 0
255 -262 0
261 -262 0
-247 -248 250 -252 253 -255 -261 262 0
247 -264 0
248 -264 0
-250 -264 0
252 -264 0
-253 -264 0
255 -264 0
-261 -264 0
263 -264 0
-247 -248 250 -252 253 -255 261 -263 264 0
-265 266 0
265 266 0
247 -268 0
248 -268 0
-250 -268 0
-252 -268 0
257 -268 0
-259 -268 0
266 -268 0
267 -268 0
-247 -248 250 252 -257 259 -266 -267 268 0
247 -269 0
248 -269 0
-250 -269 0
-252 -269 0
257 -269 0
-259 -269 0
266 -269 0
-267 -269 0
-247 -248 250 252 -257 259 -266 267 269 0
270 -272 0
271 -272 0
-270 -271 272 0
270 -273 0
-271 -273 0
-270 271 273 0
270 274 0
-272 274 0
-273 274 0
-270 272 273 -274 0
247 -275 0
248 -275 0
-250 -275 0
252 -275 0
-253 -275 0
255 -275 0
-261 -275 0
-263 -275 0
274 -275 0
-247 -248 250 -252 253 -255 261 263 -274 275 0
-249 276 0
-251 276 0
-254 276 0
-256 276 0
-258 276 0
-260 276 0
-262 276 0
-264 276 0
-268 276 0
-269 276 0
-275 276 0
249 251 254 256 258 260 262 264 268 269 275 -276 0
242 -277 0
-243 -277 0
-245 -277 0
276 -277 0
-242 243 245 -276 277 0
242 -279 0
-243 -279 0
245 -279 0
-278 -279 0
-242 243 -245 278 279 0
242 -281 0
-243 -281 0
245 -281 0
278 -281 0
-280 -281 0
-242 243 -245 -278 280 281 0
242 -282 0
-243 -282 0
245 -282 0
278 -282 0
280 -282 0
-242 243 -245 -278 -280 282 0
-277 283 0
-279 283 0
-281 283 0
-282 283 0
277 279 281 282 -283 0
283 -285 0
284 -285 0
-283 -284 285 0
283 -286 0
-284 -286 0
-283 284 286 0
-244 287 0
-285 287 0
-286 287 0
244 285 286 -287 0
-288 289 0
288 289 0
236 -291 0
240 -291 0
287 -291 0
289 -291 0
290 -291 0
-236 -240 -287 -289 -290 291 0
-292 293 0
292 293 0
236 -294 0
240 -294 0
287 -294 0
289 -294 0
-290 -294 0
293 -294 0
-236 -240 -287 -289 290 -293 294 0
-291 295 0
-294 295 0
291 294 -295 0
295 -297 0
296 -297 0
-295 -296 297 0
295 -298 0
-296 -298 0
-295 296 298 0
236 299 0
-297 299 0
-298 299 0
-236 297 298 -299 0
220 -300 0
231 -300 0
233 -300 0
235 -300 0
299 -300 0
-220 -231 -233 -235 -299 300 0
-220 -301 0
231 -301 0
233 -301 0
235 -301 0
220 -231 -233 -235 301 0
-300 302 0
-301 302 0
300 301 -302 0
303 304 0
-303 304 0
219 -305 0
302 -305 0
304 -305 0
-219 -302 -304 305 0
-219 -306 0
302 -306 0
219 -302 306 0
-305 307 0
-306 307 0
305 306 -307 0
308 309 0
-308 309 0
218 -310 0
307 -310 0
309 -310 0
-218 -307 -309 310 0
-218 -311 0
307 -311 0
218 -307 311 0
-310 312 0
-311 312 0
310 311 -312 0
313 314 0
-313 314 0
217 -315 0
312 -315 0
314 -315 0
-217 -312 -314 315 0
317 318 0
-317 318 0
316 -319 0
312 -319 0
318 -319 0
-316 -312 -318 319 0
-316 -320 0
312 -320 0
316 -312 320 0
-319 321 0
-320 321 0
319 320 -321 0
-217 -322 0
321 -322 0
217 -321 322 0
-315 323 0
-322 323 0
315 322 -323 0
-227 324 0
227 324 0
221 -325 0
324 -325 0
-221 -324 325 0
-325 326 0
221 326 0
325 -221 -326 0
326 -327 0
-236 -327 0
-326 236 327 0
326 -328 0
242 -328 0
243 -328 0
-326 -242 -243 328 0
326 -329 0
242 -329 0
-243 -329 0
245 -329 0
278 -329 0
-280 -329 0
-326 -242 243 -245 -278 280 329 0
326 -330 0
242 -330 0
-243 -330 0
245 -330 0
278 -330 0
280 -330 0
-326 -242 243 -245 -278 -280 330 0
326 -331 0
242 -331 0
-243 -331 0
245 -331 0
-278 -331 0
-326 -242 243 -245 278 331 0
326 -332 0
246 -332 0
-326 -246 332 0
326 -333 0
-246 -333 0
-326 246 333 0
-332 334 0
-333 334 0
332 333 -334 0
-249 335 0
-251 335 0
-254 335 0
-256 335 0
-258 335 0
-260 335 0
-262 335 0
-264 335 0
249 251 254 256 258 260 262 264 -335 0
334 -336 0
335 -336 0
-334 -335 336 0
334 -337 0
247 -337 0
248 -337 0
-250 -337 0
252 -337 0
-253 -337 0
255 -337 0
-261 -337 0
-263 -337 0
274 -337 0
-334 -247 -248 250 -252 253 -255 261 263 -274 337 0
-268 338 0
-269 338 0
268 269 -338 0
334 -339 0
338 -339 0
-334 -338 339 0
-336 340 0
-337 340 0
-339 340 0
336 337 339 -340 0
340 -341 0
242 -341 0
-243 -341 0
-245 -341 0
276 -341 0
-340 -242 243 245 -276 341 0
-329 342 0
-330 342 0
-331 342 0
-341 342 0
329 330 331 341 -342 0
342 -343 0
283 -343 0
284 -343 0
-342 -283 -284 343 0
342 -344 0
283 -344 0
-284 -344 0
-342 -283 284 344 0
-328 345 0
-343 345 0
-344 345 0
328 343 344 -345 0
345 -346 0
236 -346 0
240 -346 0
287 -346 0
289 -346 0
290 -346 0
-345 -236 -240 -287 -289 -290 346 0
345 -347 0
236 -347 0
240 -347 0
287 -347 0
289 -347 0
-290 -347 0
293 -347 0
-345 -236 -240 -287 -289 290 -293 347 0
-346 348 0
-347 348 0
346 347 -348 0
-297 349 0
-298 349 0
297 298 -349 0
348 -350 0
349 -350 0
-348 -349 350 0
-327 351 0
-350 351 0
327 350 -351 0
220 -352 0
351 -352 0
-220 -351 352 0
-220 -353 0
326 -353 0
220 -326 353 0
-352 354 0
-353 354 0
352 353 -354 0
354 -355 0
-303 -355 0
-354 303 355 0
354 -356 0
303 -356 0
-354 -303 356 0
-355 357 0
-356 357 0
355 356 -357 0
219 -358 0
357 -358 0
-219 -357 358 0
-219 -359 0
354 -359 0
219 -354 359 0
-358 360 0
-359 360 0
358 359 -360 0
360 -361 0
-308 -361 0
-360 308 361 0
360 -362 0
308 -362 0
-360 -308 362 0
-361 363 0
-362 363 0
361 362 -363 0
218 -364 0
363 -364 0
-218 -363 364 0
-218 -365 0
360 -365 0
218 -360 365 0
-364 366 0
-365 366 0
364 365 -366 0
366 -367 0
-313 -367 0
-366 313 367 0
366 -368 0
313 -368 0
-366 -313 368 0
-367 369 0
-368 369 0
367 368 -369 0
217 -370 0
369 -370 0
-217 -369 370 0
366 -371 0
-317 -371 0
-366 317 371 0
366 -372 0
317 -372 0
-366 -317 372 0
-371 373 0
-372 373 0
371 372 -373 0
316 -374 0
373 -374 0
-316 -373 374 0
-316 -375 0
366 -375 0
316 -366 375 0
-374 376 0
-375 376 0
374 375 -376 0
-217 -377 0
376 -377 0
217 -376 377 0
-370 378 0
-377 378 0
370 377 -378 0
-227 379 0
227 379 0
221 -380 0
379 -380 0
-221 -379 380 0
-380 381 0
221 381 0
380 -221 -381 0
381 -382 0
-236 -382 0
-381 236 382 0
381 -383 0
242 -383 0
243 -383 0
-381 -242 -243 383 0
381 -384 0
242 -384 0
-243 -384 0
245 -384 0
278 -384 0
-280 -384 0
-381 -242 243 -245 -278 280 384 0
381 -385 0
242 -385 0
-243 -385 0
245 -385 0
278 -385 0
280 -385 0
-381 -242 243 -245 -278 -280 385 0
381 -386 0
242 -386 0
-243 -386 0
245 -386 0
-278 -386 0
-381 -242 243 -245 278 386 0
381 -387 0
246 -387 0
-381 -246 387 0
381 -388 0
-246 -388 0
-381 246 388 0
-387 389 0
-388 389 0
387 388 -389 0
-249 390 0
-251 390 0
-254 390 0
-256 390 0
-258 390 0
-260 390 0
-262 390 0
-264 390 0
249 251 254 256 258 260 262 264 -390 0
389 -391 0
390 -391 0
-389 -390 391 0
389 -392 0
247 -392 0
248 -392 0
-250 -392 0
252 -392 0
-253 -392 0
255 -392 0
-261 -392 0
-263 -392 0
274 -392 0
-389 -247 -248 250 -252 253 -255 261 263 -274 392 0
389 -393 0
338 -393 0
-389 -338 393 0
-391 394 0
-392 394 0
-393 394 0
391 392 393 -394 0
394 -395 0
242 -395 0
-243 -395 0
-245 -395 0
276 -395 0
-394 -242 243 245 -276 395 0
-384 396 0
-385 396 0
-386 396 0
-395 396 0
384 385 386 395 -396 0
396 -397 0
283 -397 0
284 -397 0
-396 -283 -284 397 0
396 -398 0
283 -398 0
-284 -398 0
-396 -283 284 398 0
-383 399 0
-397 399 0
-398 399 0
383 397 398 -399 0
399 -400 0
236 -400 0
240 -400 0
287 -400 0
289 -400 0
290 -400 0
-399 -236 -240 -287 -289 -290 400 0
399 -401 0
236 -401 0
240 -401 0
287 -401 0
289 -401 0
-290 -401 0
293 -401 0
-399 -236 -240 -287 -289 290 -293 401 0
-400 402 0
-401 402 0
400 401 -402 0
402 -403 0
349 -403 0
-402 -349 403 0
-382 404 0
-403 404 0
382 403 -404 0
220 -405 0
404 -405 0
-220 -404 405 0
-220 -406 0
381 -406 0
220 -381 406 0
-405 407 0
-406 407 0
405 406 -407 0
407 -408 0
-303 -408 0
-407 303 408 0
407 -409 0
303 -409 0
-407 -303 409 0
-408 410 0
-409 410 0
408 409 -410 0
219 -411 0
410 -411 0
-219 -410 411 0
-219 -412 0
407 -412 0
219 -407 412 0
-411 413 0
-412 413 0
411 412 -413 0
413 -414 0
-308 -414 0
-413 308 414 0
413 -415 0
308 -415 0
-413 -308 415 0
-414 416 0
-415 416 0
414 415 -416 0
218 -417 0
416 -417 0
-218 -416 417 0
-218 -418 0
413 -418 0
218 -413 418 0
-417 419 0
-418 419 0
417 418 -419 0
419 -420 0
-313 -420 0
-419 313 420 0
419 -421 0
313 -421 0
-419 -313 421 0
-420 422 0
-421 422 0
420 421 -422 0
217 -423 0
422 -423 0
-217 -422 423 0
419 -424 0
-317 -424 0
-419 317 424 0
419 -425 0
317 -425 0
-419 -317 425 0
-424 426 0
-425 426 0
424 425 -426 0
316 -427 0
426 -427 0
-316 -426 427 0
-316 -428 0
419 -428 0
316 -419 428 0
-427 429 0
-428 429 0
427 428 -429 0
-217 -430 0
429 -430 0
217 -429 430 0
-423 431 0
-430 431 0
423 430 -431 0
-378 -163 -432 0
378 163 -432 0
-378 163 432 0
378 -163 432 0
-431 -216 -433 0
431 216 -433 0
-431 216 433 0
431 -216 433 0
-432 -434 0
-433 -434 0
323 -434 0
432 433 -323 434 0
-108 434 0
